
******************************************************************************
This program contains Ipopt, a library for large-scale nonlinear optimization.
 Ipopt is released as open source code under the Eclipse Public License (EPL).
         For more information visit http://projects.coin-or.org/Ipopt

This version of Ipopt was compiled from source code available at
    https://github.com/IDAES/Ipopt as part of the Institute for the Design of
    Advanced Energy Systems Process Systems Engineering Framework (IDAES PSE
    Framework) Copyright (c) 2018-2019. See https://github.com/IDAES/idaes-pse.

This version of Ipopt was compiled using HSL, a collection of Fortran codes
    for large-scale scientific computation.  All technical papers, sales and
    publicity material resulting from use of the HSL codes within IPOPT must
    contain the following acknowledgement:
        HSL, a collection of Fortran codes for large-scale scientific
        computation. See http://www.hsl.rl.ac.uk.
******************************************************************************

This is Ipopt version 3.13.2, running with linear solver ma27.

Number of nonzeros in equality constraint Jacobian...:     1210
Number of nonzeros in inequality constraint Jacobian.:        0
Number of nonzeros in Lagrangian Hessian.............:     1376

Total number of variables............................:      480
                     variables with only lower bounds:      128
                variables with lower and upper bounds:      288
                     variables with only upper bounds:        0
Total number of equality constraints.................:      477
Total number of inequality constraints...............:        0
        inequality constraints with only lower bounds:        0
   inequality constraints with lower and upper bounds:        0
        inequality constraints with only upper bounds:        0

iter    objective    inf_pr   inf_du lg(mu)  ||d||  lg(rg) alpha_du alpha_pr  ls
   0  0.0000000e+00 2.72e-01 3.53e-14  -1.0 0.00e+00    -  0.00e+00 0.00e+00   0
   1  1.3410054e-01 3.91e-01 1.83e+03  -1.0 3.60e+04    -  9.24e-01 9.90e-01h  1
   2  1.3655662e-01 1.38e-01 1.98e+03  -1.0 1.52e+03    -  3.80e-01 9.90e-01h  1
   3  1.3775892e-01 5.78e-02 5.64e+04  -1.0 6.97e+02    -  4.29e-01 9.90e-01h  1
   4  1.3847372e-01 1.33e-02 6.97e+03  -1.0 5.10e+02    -  9.89e-01 9.90e-01h  1
   5  1.4249107e-01 3.46e-03 1.03e+07  -1.0 8.69e+03    -  9.80e-01 9.90e-01h  1
   6  1.5144918e-01 1.69e-03 7.18e+04  -1.0 1.52e+04    -  9.90e-01 9.90e-01H  1
   7  1.3887847e-01 1.36e-03 3.64e+06  -5.7 9.79e+03    -  9.80e-01 1.00e+00h  1
In iteration 7, 32 Slacks too small, adjusting variable bounds
   8  1.3886862e-01 5.78e-06 3.49e+11  -5.7 4.77e+00  -4.0 9.97e-01 1.00e+00h  1
   9  1.3886858e-01 1.01e-10 3.05e-05  -5.7 1.57e-02  -4.5 1.00e+00 1.00e+00h  1

Number of Iterations....: 9

                                   (scaled)                 (unscaled)
Objective...............:   1.3886858111618439e-01    1.3886858111618439e-01
Dual infeasibility......:   3.0517578125000000e-05    3.0517578125000000e-05
Constraint violation....:   7.4959879506278705e-11    1.0064357680583667e-10
Complementarity.........:   1.8449386872478824e-06    1.8449386872478824e-06
Overall NLP error.......:   7.4959879506278705e-11    3.0517578125000000e-05


Number of objective function evaluations             = 12
Number of objective gradient evaluations             = 10
Number of equality constraint evaluations            = 12
Number of inequality constraint evaluations          = 0
Number of equality constraint Jacobian evaluations   = 10
Number of inequality constraint Jacobian evaluations = 0
Number of Lagrangian Hessian evaluations             = 9
Total CPU secs in IPOPT (w/o function evaluations)   =      0.022
Total CPU secs in NLP function evaluations           =      0.159

EXIT: Optimal Solution Found.
